c 
p cnf 112 179
-1 -13 11 0
-16 -2 21 0
-21 12 22 0
-22 -13 -5 0
-13 23 24 0
-13 23 -24 0
-13 -23 24 0
-13 -23 -24 0
-12 5 20 0
7 -6 25 0
-25 -8 -5 0
-8 16 26 0
-8 16 -26 0
-7 6 27 0
-7 6 -27 0
5 2 28 0
-28 1 -14 0
-1 -15 29 0
-29 13 -12 0
1 -19 30 0
-30 13 31 0
-31 -16 -2 0
-6 32 33 0
-6 32 -33 0
-6 -32 33 0
-6 -32 -33 0
-9 16 34 0
-9 16 -34 0
18 35 36 0
18 35 -36 0
18 -35 36 0
18 -35 -36 0
-13 17 -18 0
-6 14 11 0
10 -3 37 0
-37 -2 -12 0
18 -20 38 0
-38 17 39 0
-39 13 -10 0
-4 -16 40 0
-40 11 -7 0
18 -15 41 0
-41 16 7 0
-9 -3 42 0
-42 -4 11 0
5 -1 43 0
-43 7 44 0
-44 -2 -18 0
15 14 45 0
-45 10 46 0
-46 5 -20 0
-17 13 47 0
-47 8 48 0
-48 16 15 0
-15 -13 49 0
-49 -9 -14 0
4 16 50 0
-50 -3 51 0
-51 9 17 0
13 -20 17 0
17 -3 14 0
-3 -20 52 0
-3 -20 -52 0
-15 19 53 0
-53 -11 54 0
-54 14 4 0
11 3 55 0
-55 7 14 0
14 19 6 0
2 5 -6 0
10 -18 56 0
10 -18 -56 0
-15 3 57 0
-15 3 -57 0
-4 11 58 0
-58 18 13 0
14 -16 59 0
14 -16 -59 0
17 -16 60 0
17 -16 -60 0
-12 20 61 0
-61 13 17 0
-3 7 10 0
-8 -4 62 0
-8 -4 -62 0
5 63 64 0
5 63 -64 0
5 -63 64 0
5 -63 -64 0
-19 -9 16 0
-15 -13 65 0
-65 -16 66 0
-66 -11 8 0
6 -7 67 0
6 -7 -67 0
1 -20 68 0
-68 7 69 0
-69 -5 19 0
-8 70 71 0
-8 70 -71 0
-8 -70 71 0
-8 -70 -71 0
-12 18 72 0
-72 -20 -10 0
-8 -1 73 0
-73 10 74 0
-74 -5 -19 0
-6 -7 75 0
-6 -7 -75 0
-18 -5 76 0
-76 16 1 0
1 7 77 0
-77 -19 -10 0
-18 5 -14 0
11 12 78 0
-78 10 17 0
-1 6 79 0
-79 13 80 0
-80 3 5 0
16 4 8 0
-8 -2 -10 0
-11 2 81 0
-81 12 82 0
-82 15 14 0
7 -8 83 0
-83 -13 84 0
-84 10 18 0
6 15 85 0
6 15 -85 0
18 16 86 0
18 16 -86 0
13 -6 87 0
-87 7 19 0
3 -10 88 0
-88 -7 2 0
3 -16 89 0
-89 -18 14 0
6 90 91 0
6 90 -91 0
6 -90 91 0
6 -90 -91 0
-5 -7 14 0
18 3 92 0
18 3 -92 0
15 -5 93 0
-93 11 8 0
16 6 94 0
16 6 -94 0
-7 -11 -2 0
2 95 96 0
2 95 -96 0
2 -95 96 0
2 -95 -96 0
12 19 97 0
12 19 -97 0
11 -4 98 0
-98 -7 99 0
-99 -8 19 0
-5 -10 100 0
-100 1 101 0
-101 -14 18 0
-13 14 102 0
-102 -7 103 0
-103 19 6 0
-7 -9 104 0
-104 -12 105 0
-105 11 -8 0
-19 1 106 0
-106 -20 107 0
-107 11 -16 0
7 6 108 0
-108 -9 109 0
-109 5 11 0
5 -20 110 0
-110 18 111 0
-111 -8 1 0
-13 12 9 0
-2 -1 112 0
-2 -1 -112 0
